WARNING: for repeatability, setting FPU to use double precision
============================[ Problem Statistics ]=============================
|                                                                             |
|  Number of variables:          4351                                         |
|  Number of clauses:           55618                                         |
|  Parse time:                   0.01 s                                       |
|  Eliminated clauses:           0.01 Mb                                      |
|  Simplification time:          0.01 s                                       |
|                                                                             |
============================[ Search Statistics ]==============================
| Conflicts |          ORIGINAL         |          LEARNT          | Progress |
|           |    Vars  Clauses Literals |    Limit  Clauses Lit/Cl |          |
===============================================================================
|       100 |     743     4502    13658 |     1650      100     18 | 59.504 % |
|       250 |     743     4502    13658 |     1815      250     17 | 59.504 % |
===============================================================================
restarts              : 4
conflicts             : 423            (14727 /sec)
decisions             : 1604           (0.00 % random) (55846 /sec)
propagations          : 20717          (721294 /sec)
conflict literals     : 12807          (4.57 % deleted)
Memory used           : 24.00 MB
CPU time              : 0.028722 s

SATISFIABLE
